wcsp 50 3 251 512409557603043100
3 3 3 3 3 3 3 3 3 3 3 3 3 3 3 3 3 3 3 3 3 3 3 3 3 3 3 3 3 3 3 3 3 3 3 3 3 3 3 3 3 3 3 3 3 3 3 3 3 3
2 22 27 0 9
0 0 1
0 1 1
0 2 0
1 0 0
1 1 3
1 2 3
2 0 3
2 1 0
2 2 0
2 25 29 0 9
0 0 3
0 1 3
0 2 0
1 0 1
1 1 0
1 2 0
2 0 1
2 1 1
2 2 0
2 3 4 0 9
0 0 0
0 1 2
0 2 0
1 0 0
1 1 3
1 2 0
2 0 2
2 1 1
2 2 3
2 34 35 0 9
0 0 3
0 1 0
0 2 0
1 0 2
1 1 0
1 2 0
2 0 2
2 1 2
2 2 3
2 6 29 0 9
0 0 0
0 1 2
0 2 2
1 0 1
1 1 1
1 2 0
2 0 0
2 1 2
2 2 0
2 3 31 0 9
0 0 0
0 1 1
0 2 2
1 0 2
1 1 0
1 2 1
2 0 0
2 1 0
2 2 3
2 1 45 0 9
0 0 0
0 1 1
0 2 2
1 0 0
1 1 1
1 2 0
2 0 1
2 1 2
2 2 0
2 41 47 0 9
0 0 0
0 1 2
0 2 1
1 0 1
1 1 0
1 2 1
2 0 3
2 1 0
2 2 0
2 16 21 0 9
0 0 2
0 1 0
0 2 1
1 0 0
1 1 3
1 2 2
2 0 2
2 1 0
2 2 0
2 11 20 0 9
0 0 0
0 1 0
0 2 3
1 0 1
1 1 0
1 2 3
2 0 3
2 1 2
2 2 0
2 23 34 0 9
0 0 0
0 1 2
0 2 0
1 0 2
1 1 1
1 2 0
2 0 1
2 1 0
2 2 2
2 11 21 0 9
0 0 1
0 1 0
0 2 2
1 0 0
1 1 0
1 2 2
2 0 0
2 1 2
2 2 2
2 7 25 0 9
0 0 0
0 1 0
0 2 3
1 0 1
1 1 1
1 2 3
2 0 0
2 1 0
2 2 1
2 12 19 0 9
0 0 0
0 1 3
0 2 2
1 0 0
1 1 2
1 2 2
2 0 2
2 1 0
2 2 0
2 2 14 0 9
0 0 0
0 1 0
0 2 0
1 0 2
1 1 1
1 2 2
2 0 2
2 1 0
2 2 1
2 9 39 0 9
0 0 2
0 1 0
0 2 0
1 0 2
1 1 3
1 2 0
2 0 3
2 1 0
2 2 3
2 30 41 0 9
0 0 3
0 1 0
0 2 2
1 0 1
1 1 0
1 2 0
2 0 3
2 1 0
2 2 2
2 9 30 0 9
0 0 2
0 1 3
0 2 0
1 0 0
1 1 0
1 2 3
2 0 0
2 1 1
2 2 1
2 30 36 0 9
0 0 0
0 1 3
0 2 1
1 0 2
1 1 3
1 2 0
2 0 3
2 1 0
2 2 0
2 13 39 0 9
0 0 0
0 1 2
0 2 0
1 0 2
1 1 0
1 2 2
2 0 0
2 1 3
2 2 2
2 10 20 0 9
0 0 0
0 1 0
0 2 1
1 0 1
1 1 1
1 2 3
2 0 2
2 1 0
2 2 0
2 20 48 0 9
0 0 0
0 1 1
0 2 0
1 0 1
1 1 1
1 2 3
2 0 0
2 1 2
2 2 0
2 23 26 0 9
0 0 0
0 1 0
0 2 0
1 0 0
1 1 1
1 2 1
2 0 1
2 1 2
2 2 2
2 5 28 0 9
0 0 2
0 1 0
0 2 0
1 0 2
1 1 2
1 2 3
2 0 2
2 1 0
2 2 0
2 20 24 0 9
0 0 2
0 1 2
0 2 1
1 0 0
1 1 0
1 2 2
2 0 1
2 1 0
2 2 0
2 26 31 0 9
0 0 0
0 1 0
0 2 1
1 0 1
1 1 2
1 2 0
2 0 1
2 1 1
2 2 0
2 26 43 0 9
0 0 0
0 1 0
0 2 1
1 0 1
1 1 0
1 2 0
2 0 3
2 1 3
2 2 1
2 2 47 0 9
0 0 2
0 1 0
0 2 0
1 0 1
1 1 0
1 2 0
2 0 1
2 1 3
2 2 3
2 31 40 0 9
0 0 0
0 1 0
0 2 2
1 0 0
1 1 1
1 2 0
2 0 1
2 1 1
2 2 2
2 2 10 0 9
0 0 0
0 1 2
0 2 3
1 0 1
1 1 3
1 2 0
2 0 3
2 1 0
2 2 0
2 1 6 0 9
0 0 0
0 1 0
0 2 1
1 0 0
1 1 2
1 2 3
2 0 3
2 1 2
2 2 0
2 30 31 0 9
0 0 1
0 1 2
0 2 0
1 0 0
1 1 1
1 2 1
2 0 0
2 1 0
2 2 1
2 13 38 0 9
0 0 3
0 1 0
0 2 1
1 0 2
1 1 0
1 2 0
2 0 1
2 1 3
2 2 0
2 15 44 0 9
0 0 3
0 1 0
0 2 2
1 0 0
1 1 1
1 2 0
2 0 1
2 1 2
2 2 0
2 9 19 0 9
0 0 2
0 1 2
0 2 3
1 0 1
1 1 0
1 2 0
2 0 0
2 1 1
2 2 0
2 32 46 0 9
0 0 0
0 1 3
0 2 3
1 0 1
1 1 3
1 2 0
2 0 0
2 1 3
2 2 0
2 32 47 0 9
0 0 1
0 1 0
0 2 3
1 0 0
1 1 0
1 2 1
2 0 2
2 1 1
2 2 0
2 34 38 0 9
0 0 0
0 1 0
0 2 2
1 0 0
1 1 0
1 2 2
2 0 1
2 1 1
2 2 2
2 26 45 0 9
0 0 0
0 1 3
0 2 0
1 0 0
1 1 1
1 2 2
2 0 3
2 1 0
2 2 2
2 43 45 0 9
0 0 0
0 1 2
0 2 0
1 0 3
1 1 1
1 2 3
2 0 0
2 1 1
2 2 0
2 26 48 0 9
0 0 1
0 1 3
0 2 0
1 0 0
1 1 0
1 2 2
2 0 1
2 1 0
2 2 3
2 1 49 0 9
0 0 0
0 1 0
0 2 3
1 0 2
1 1 3
1 2 3
2 0 0
2 1 0
2 2 1
2 5 27 0 9
0 0 1
0 1 0
0 2 2
1 0 1
1 1 3
1 2 0
2 0 0
2 1 1
2 2 0
2 1 29 0 9
0 0 0
0 1 0
0 2 0
1 0 1
1 1 3
1 2 3
2 0 0
2 1 1
2 2 2
2 6 7 0 9
0 0 3
0 1 0
0 2 3
1 0 3
1 1 1
1 2 1
2 0 0
2 1 0
2 2 0
2 0 22 0 9
0 0 0
0 1 0
0 2 2
1 0 0
1 1 2
1 2 2
2 0 2
2 1 0
2 2 1
2 9 16 0 9
0 0 2
0 1 0
0 2 0
1 0 2
1 1 1
1 2 0
2 0 1
2 1 2
2 2 0
2 1 48 0 9
0 0 2
0 1 2
0 2 0
1 0 0
1 1 3
1 2 3
2 0 1
2 1 0
2 2 0
2 15 36 0 9
0 0 0
0 1 3
0 2 3
1 0 0
1 1 3
1 2 0
2 0 2
2 1 0
2 2 3
2 14 45 0 9
0 0 0
0 1 3
0 2 0
1 0 1
1 1 0
1 2 3
2 0 3
2 1 2
2 2 0
2 2 29 0 9
0 0 2
0 1 1
0 2 2
1 0 2
1 1 0
1 2 0
2 0 0
2 1 3
2 2 0
2 1 30 0 9
0 0 0
0 1 0
0 2 1
1 0 2
1 1 0
1 2 2
2 0 3
2 1 0
2 2 1
2 6 45 0 9
0 0 0
0 1 2
0 2 3
1 0 3
1 1 0
1 2 0
2 0 3
2 1 0
2 2 1
2 10 14 0 9
0 0 0
0 1 1
0 2 2
1 0 2
1 1 0
1 2 1
2 0 0
2 1 0
2 2 1
2 33 37 0 9
0 0 0
0 1 0
0 2 1
1 0 3
1 1 1
1 2 0
2 0 2
2 1 3
2 2 0
2 1 7 0 9
0 0 0
0 1 1
0 2 1
1 0 3
1 1 2
1 2 0
2 0 1
2 1 0
2 2 0
2 16 48 0 9
0 0 1
0 1 2
0 2 0
1 0 3
1 1 0
1 2 0
2 0 3
2 1 2
2 2 0
2 4 29 0 9
0 0 2
0 1 3
0 2 3
1 0 0
1 1 0
1 2 1
2 0 0
2 1 0
2 2 2
2 15 33 0 9
0 0 2
0 1 0
0 2 3
1 0 0
1 1 0
1 2 3
2 0 2
2 1 0
2 2 2
2 20 39 0 9
0 0 0
0 1 0
0 2 2
1 0 2
1 1 3
1 2 0
2 0 2
2 1 0
2 2 2
2 2 40 0 9
0 0 0
0 1 0
0 2 3
1 0 3
1 1 0
1 2 3
2 0 2
2 1 1
2 2 0
2 45 48 0 9
0 0 1
0 1 3
0 2 0
1 0 3
1 1 0
1 2 1
2 0 1
2 1 0
2 2 0
2 6 30 0 9
0 0 1
0 1 1
0 2 0
1 0 2
1 1 0
1 2 1
2 0 0
2 1 3
2 2 0
2 41 46 0 9
0 0 3
0 1 0
0 2 3
1 0 3
1 1 0
1 2 1
2 0 0
2 1 2
2 2 0
2 12 25 0 9
0 0 0
0 1 3
0 2 0
1 0 1
1 1 0
1 2 3
2 0 0
2 1 2
2 2 2
2 15 45 0 9
0 0 2
0 1 0
0 2 0
1 0 2
1 1 1
1 2 1
2 0 2
2 1 0
2 2 0
2 0 9 0 9
0 0 3
0 1 1
0 2 0
1 0 0
1 1 1
1 2 0
2 0 0
2 1 3
2 2 3
2 29 42 0 9
0 0 1
0 1 1
0 2 1
1 0 0
1 1 0
1 2 0
2 0 1
2 1 1
2 2 0
2 22 41 0 9
0 0 0
0 1 0
0 2 3
1 0 3
1 1 0
1 2 0
2 0 3
2 1 1
2 2 1
2 2 3 0 9
0 0 3
0 1 3
0 2 0
1 0 1
1 1 0
1 2 0
2 0 0
2 1 3
2 2 3
2 4 42 0 9
0 0 0
0 1 1
0 2 3
1 0 0
1 1 1
1 2 2
2 0 0
2 1 3
2 2 0
2 15 19 0 9
0 0 2
0 1 2
0 2 1
1 0 0
1 1 0
1 2 3
2 0 0
2 1 3
2 2 0
2 17 49 0 9
0 0 0
0 1 0
0 2 3
1 0 2
1 1 2
1 2 1
2 0 0
2 1 2
2 2 0
2 44 46 0 9
0 0 0
0 1 0
0 2 0
1 0 0
1 1 2
1 2 1
2 0 3
2 1 3
2 2 3
2 4 32 0 9
0 0 2
0 1 0
0 2 0
1 0 1
1 1 1
1 2 0
2 0 0
2 1 2
2 2 3
2 3 22 0 9
0 0 3
0 1 1
0 2 1
1 0 3
1 1 0
1 2 0
2 0 0
2 1 2
2 2 0
2 33 45 0 9
0 0 0
0 1 0
0 2 0
1 0 3
1 1 2
1 2 2
2 0 3
2 1 0
2 2 3
2 6 48 0 9
0 0 3
0 1 0
0 2 2
1 0 1
1 1 0
1 2 2
2 0 0
2 1 0
2 2 2
2 12 20 0 9
0 0 2
0 1 2
0 2 0
1 0 0
1 1 0
1 2 3
2 0 3
2 1 0
2 2 2
2 29 38 0 9
0 0 2
0 1 0
0 2 3
1 0 0
1 1 3
1 2 0
2 0 0
2 1 3
2 2 2
2 20 44 0 9
0 0 2
0 1 3
0 2 0
1 0 2
1 1 2
1 2 0
2 0 3
2 1 0
2 2 0
2 18 19 0 9
0 0 3
0 1 1
0 2 0
1 0 1
1 1 2
1 2 0
2 0 2
2 1 0
2 2 0
2 5 37 0 9
0 0 1
0 1 2
0 2 0
1 0 0
1 1 2
1 2 0
2 0 0
2 1 3
2 2 1
2 20 22 0 9
0 0 0
0 1 1
0 2 0
1 0 0
1 1 2
1 2 3
2 0 0
2 1 1
2 2 2
2 24 35 0 9
0 0 2
0 1 1
0 2 0
1 0 3
1 1 0
1 2 0
2 0 2
2 1 1
2 2 0
2 39 44 0 9
0 0 3
0 1 0
0 2 0
1 0 2
1 1 0
1 2 1
2 0 1
2 1 0
2 2 1
2 12 38 0 9
0 0 0
0 1 0
0 2 1
1 0 2
1 1 3
1 2 1
2 0 0
2 1 0
2 2 3
2 27 38 0 9
0 0 0
0 1 3
0 2 1
1 0 1
1 1 3
1 2 0
2 0 2
2 1 0
2 2 0
2 2 4 0 9
0 0 2
0 1 3
0 2 2
1 0 0
1 1 3
1 2 3
2 0 0
2 1 0
2 2 0
2 1 22 0 9
0 0 0
0 1 2
0 2 2
1 0 2
1 1 2
1 2 0
2 0 3
2 1 0
2 2 0
2 10 40 0 9
0 0 1
0 1 0
0 2 0
1 0 3
1 1 2
1 2 2
2 0 0
2 1 0
2 2 1
2 20 40 0 9
0 0 0
0 1 0
0 2 3
1 0 0
1 1 1
1 2 0
2 0 1
2 1 1
2 2 2
2 11 42 0 9
0 0 0
0 1 0
0 2 3
1 0 3
1 1 3
1 2 2
2 0 0
2 1 2
2 2 0
2 23 37 0 9
0 0 1
0 1 3
0 2 3
1 0 3
1 1 0
1 2 0
2 0 0
2 1 2
2 2 0
2 12 35 0 9
0 0 0
0 1 0
0 2 3
1 0 1
1 1 3
1 2 0
2 0 3
2 1 3
2 2 0
2 11 37 0 9
0 0 0
0 1 1
0 2 3
1 0 0
1 1 3
1 2 0
2 0 0
2 1 2
2 2 1
2 3 42 0 9
0 0 0
0 1 3
0 2 1
1 0 3
1 1 0
1 2 0
2 0 3
2 1 3
2 2 0
2 13 32 0 9
0 0 1
0 1 1
0 2 0
1 0 3
1 1 0
1 2 1
2 0 0
2 1 1
2 2 0
2 10 47 0 9
0 0 0
0 1 2
0 2 2
1 0 2
1 1 0
1 2 0
2 0 3
2 1 2
2 2 0
2 36 44 0 9
0 0 2
0 1 0
0 2 3
1 0 1
1 1 0
1 2 0
2 0 1
2 1 0
2 2 2
2 7 16 0 9
0 0 1
0 1 0
0 2 0
1 0 3
1 1 2
1 2 0
2 0 1
2 1 1
2 2 0
2 17 45 0 9
0 0 2
0 1 2
0 2 2
1 0 0
1 1 0
1 2 1
2 0 3
2 1 0
2 2 0
2 1 13 0 9
0 0 3
0 1 2
0 2 0
1 0 0
1 1 1
1 2 0
2 0 1
2 1 2
2 2 0
2 16 27 0 9
0 0 1
0 1 0
0 2 0
1 0 3
1 1 0
1 2 1
2 0 3
2 1 1
2 2 0
2 1 26 0 9
0 0 0
0 1 0
0 2 0
1 0 2
1 1 0
1 2 1
2 0 1
2 1 3
2 2 2
2 13 42 0 9
0 0 3
0 1 0
0 2 2
1 0 0
1 1 2
1 2 3
2 0 0
2 1 0
2 2 3
2 18 47 0 9
0 0 3
0 1 2
0 2 0
1 0 0
1 1 0
1 2 3
2 0 0
2 1 2
2 2 1
2 23 27 0 9
0 0 2
0 1 2
0 2 0
1 0 1
1 1 0
1 2 3
2 0 1
2 1 0
2 2 0
2 32 43 0 9
0 0 1
0 1 1
0 2 3
1 0 0
1 1 0
1 2 1
2 0 0
2 1 0
2 2 3
2 5 23 0 9
0 0 0
0 1 2
0 2 0
1 0 1
1 1 0
1 2 2
2 0 1
2 1 3
2 2 0
2 16 39 0 9
0 0 0
0 1 2
0 2 2
1 0 0
1 1 2
1 2 1
2 0 0
2 1 0
2 2 1
2 2 36 0 9
0 0 3
0 1 3
0 2 1
1 0 0
1 1 2
1 2 0
2 0 0
2 1 2
2 2 0
2 37 47 0 9
0 0 0
0 1 1
0 2 2
1 0 0
1 1 0
1 2 0
2 0 3
2 1 3
2 2 3
2 6 11 0 9
0 0 0
0 1 2
0 2 2
1 0 0
1 1 2
1 2 1
2 0 0
2 1 2
2 2 0
2 10 29 0 9
0 0 2
0 1 3
0 2 2
1 0 0
1 1 1
1 2 0
2 0 0
2 1 0
2 2 1
2 17 19 0 9
0 0 2
0 1 2
0 2 3
1 0 0
1 1 0
1 2 0
2 0 0
2 1 2
2 2 3
2 32 41 0 9
0 0 2
0 1 0
0 2 2
1 0 2
1 1 0
1 2 0
2 0 0
2 1 1
2 2 2
2 36 48 0 9
0 0 1
0 1 0
0 2 1
1 0 1
1 1 0
1 2 0
2 0 0
2 1 1
2 2 2
2 23 40 0 9
0 0 1
0 1 0
0 2 1
1 0 0
1 1 0
1 2 0
2 0 3
2 1 3
2 2 3
2 0 13 0 9
0 0 0
0 1 3
0 2 0
1 0 2
1 1 2
1 2 2
2 0 2
2 1 0
2 2 0
2 15 30 0 9
0 0 1
0 1 1
0 2 1
1 0 3
1 1 0
1 2 1
2 0 0
2 1 0
2 2 0
2 33 41 0 9
0 0 2
0 1 3
0 2 0
1 0 2
1 1 3
1 2 3
2 0 0
2 1 0
2 2 0
2 27 49 0 9
0 0 0
0 1 1
0 2 1
1 0 3
1 1 0
1 2 0
2 0 2
2 1 0
2 2 2
2 6 38 0 9
0 0 0
0 1 0
0 2 2
1 0 1
1 1 1
1 2 0
2 0 2
2 1 0
2 2 3
2 1 46 0 9
0 0 0
0 1 2
0 2 3
1 0 0
1 1 0
1 2 1
2 0 3
2 1 0
2 2 1
2 0 49 0 9
0 0 0
0 1 0
0 2 3
1 0 0
1 1 0
1 2 3
2 0 2
2 1 1
2 2 1
2 15 40 0 9
0 0 2
0 1 0
0 2 1
1 0 1
1 1 0
1 2 0
2 0 0
2 1 1
2 2 3
2 14 28 0 9
0 0 0
0 1 1
0 2 0
1 0 0
1 1 3
1 2 2
2 0 0
2 1 1
2 2 2
2 7 43 0 9
0 0 2
0 1 0
0 2 0
1 0 0
1 1 0
1 2 1
2 0 2
2 1 3
2 2 2
2 12 31 0 9
0 0 3
0 1 2
0 2 1
1 0 0
1 1 3
1 2 3
2 0 0
2 1 0
2 2 0
2 15 21 0 9
0 0 3
0 1 3
0 2 0
1 0 0
1 1 2
1 2 1
2 0 1
2 1 0
2 2 0
2 8 45 0 9
0 0 0
0 1 3
0 2 1
1 0 0
1 1 0
1 2 2
2 0 2
2 1 2
2 2 0
2 12 45 0 9
0 0 1
0 1 2
0 2 0
1 0 0
1 1 1
1 2 1
2 0 0
2 1 0
2 2 2
2 44 48 0 9
0 0 2
0 1 0
0 2 0
1 0 3
1 1 0
1 2 1
2 0 2
2 1 1
2 2 0
2 20 41 0 9
0 0 1
0 1 3
0 2 3
1 0 2
1 1 0
1 2 0
2 0 2
2 1 0
2 2 0
2 21 45 0 9
0 0 1
0 1 1
0 2 0
1 0 0
1 1 0
1 2 0
2 0 2
2 1 3
2 2 3
2 19 34 0 9
0 0 0
0 1 0
0 2 3
1 0 2
1 1 2
1 2 0
2 0 3
2 1 0
2 2 2
2 7 27 0 9
0 0 3
0 1 0
0 2 1
1 0 2
1 1 1
1 2 0
2 0 0
2 1 3
2 2 0
2 1 3 0 9
0 0 3
0 1 2
0 2 0
1 0 3
1 1 0
1 2 0
2 0 1
2 1 2
2 2 0
2 4 31 0 9
0 0 3
0 1 0
0 2 3
1 0 0
1 1 3
1 2 2
2 0 0
2 1 1
2 2 0
2 4 41 0 9
0 0 3
0 1 0
0 2 0
1 0 2
1 1 0
1 2 1
2 0 2
2 1 0
2 2 1
2 11 28 0 9
0 0 1
0 1 0
0 2 1
1 0 0
1 1 0
1 2 0
2 0 2
2 1 3
2 2 2
2 28 30 0 9
0 0 2
0 1 0
0 2 2
1 0 0
1 1 3
1 2 2
2 0 3
2 1 0
2 2 0
2 19 20 0 9
0 0 0
0 1 0
0 2 3
1 0 0
1 1 3
1 2 1
2 0 0
2 1 3
2 2 2
2 27 40 0 9
0 0 1
0 1 0
0 2 1
1 0 2
1 1 2
1 2 0
2 0 0
2 1 1
2 2 0
2 4 40 0 9
0 0 0
0 1 2
0 2 0
1 0 1
1 1 2
1 2 0
2 0 0
2 1 3
2 2 3
2 10 48 0 9
0 0 0
0 1 3
0 2 2
1 0 0
1 1 0
1 2 3
2 0 3
2 1 1
2 2 0
2 35 48 0 9
0 0 0
0 1 0
0 2 2
1 0 1
1 1 3
1 2 0
2 0 0
2 1 1
2 2 3
2 11 23 0 9
0 0 3
0 1 0
0 2 3
1 0 0
1 1 2
1 2 1
2 0 0
2 1 1
2 2 0
2 25 31 0 9
0 0 3
0 1 0
0 2 1
1 0 0
1 1 0
1 2 3
2 0 1
2 1 2
2 2 0
2 29 36 0 9
0 0 2
0 1 1
0 2 1
1 0 3
1 1 0
1 2 0
2 0 1
2 1 0
2 2 0
2 9 13 0 9
0 0 0
0 1 0
0 2 2
1 0 0
1 1 3
1 2 3
2 0 3
2 1 1
2 2 0
2 5 49 0 9
0 0 1
0 1 0
0 2 1
1 0 0
1 1 2
1 2 2
2 0 0
2 1 0
2 2 2
2 26 30 0 9
0 0 0
0 1 0
0 2 2
1 0 2
1 1 0
1 2 3
2 0 0
2 1 3
2 2 1
2 7 18 0 9
0 0 3
0 1 1
0 2 0
1 0 0
1 1 0
1 2 2
2 0 2
2 1 2
2 2 0
2 0 7 0 9
0 0 3
0 1 0
0 2 3
1 0 1
1 1 0
1 2 2
2 0 0
2 1 1
2 2 0
2 22 31 0 9
0 0 3
0 1 0
0 2 3
1 0 0
1 1 3
1 2 3
2 0 0
2 1 2
2 2 0
2 32 35 0 9
0 0 2
0 1 1
0 2 2
1 0 0
1 1 0
1 2 0
2 0 2
2 1 2
2 2 0
2 11 41 0 9
0 0 1
0 1 3
0 2 0
1 0 0
1 1 1
1 2 3
2 0 0
2 1 0
2 2 3
2 15 28 0 9
0 0 0
0 1 0
0 2 3
1 0 0
1 1 2
1 2 0
2 0 3
2 1 2
2 2 1
2 14 49 0 9
0 0 2
0 1 2
0 2 3
1 0 2
1 1 0
1 2 0
2 0 0
2 1 3
2 2 0
2 16 24 0 9
0 0 1
0 1 0
0 2 1
1 0 0
1 1 1
1 2 1
2 0 0
2 1 3
2 2 0
2 40 46 0 9
0 0 3
0 1 0
0 2 0
1 0 1
1 1 1
1 2 0
2 0 3
2 1 0
2 2 3
2 12 41 0 9
0 0 0
0 1 0
0 2 3
1 0 1
1 1 3
1 2 3
2 0 0
2 1 0
2 2 3
2 32 37 0 9
0 0 0
0 1 0
0 2 0
1 0 0
1 1 1
1 2 3
2 0 2
2 1 1
2 2 1
2 24 42 0 9
0 0 3
0 1 0
0 2 0
1 0 3
1 1 0
1 2 2
2 0 0
2 1 3
2 2 2
2 12 36 0 9
0 0 2
0 1 0
0 2 0
1 0 2
1 1 0
1 2 1
2 0 0
2 1 2
2 2 1
2 37 42 0 9
0 0 3
0 1 0
0 2 1
1 0 0
1 1 2
1 2 3
2 0 0
2 1 1
2 2 0
2 16 18 0 9
0 0 0
0 1 0
0 2 1
1 0 1
1 1 0
1 2 2
2 0 0
2 1 2
2 2 3
2 21 27 0 9
0 0 0
0 1 1
0 2 3
1 0 0
1 1 2
1 2 0
2 0 1
2 1 0
2 2 2
2 16 44 0 9
0 0 0
0 1 2
0 2 0
1 0 0
1 1 3
1 2 0
2 0 2
2 1 2
2 2 3
2 28 44 0 9
0 0 0
0 1 3
0 2 2
1 0 1
1 1 3
1 2 0
2 0 0
2 1 1
2 2 0
2 30 48 0 9
0 0 0
0 1 0
0 2 1
1 0 1
1 1 0
1 2 0
2 0 1
2 1 1
2 2 2
2 19 43 0 9
0 0 1
0 1 0
0 2 3
1 0 0
1 1 1
1 2 1
2 0 0
2 1 3
2 2 0
2 7 35 0 9
0 0 2
0 1 0
0 2 3
1 0 2
1 1 0
1 2 3
2 0 1
2 1 0
2 2 0
2 13 47 0 9
0 0 0
0 1 0
0 2 1
1 0 1
1 1 0
1 2 3
2 0 1
2 1 3
2 2 0
2 1 32 0 9
0 0 1
0 1 2
0 2 0
1 0 1
1 1 2
1 2 0
2 0 0
2 1 0
2 2 2
2 9 21 0 9
0 0 0
0 1 3
0 2 0
1 0 0
1 1 3
1 2 2
2 0 3
2 1 1
2 2 0
2 6 34 0 9
0 0 2
0 1 1
0 2 1
1 0 1
1 1 3
1 2 0
2 0 0
2 1 0
2 2 0
2 33 39 0 9
0 0 3
0 1 0
0 2 2
1 0 2
1 1 2
1 2 0
2 0 0
2 1 2
2 2 0
2 2 32 0 9
0 0 3
0 1 0
0 2 2
1 0 1
1 1 0
1 2 0
2 0 0
2 1 2
2 2 1
2 18 38 0 9
0 0 0
0 1 1
0 2 2
1 0 0
1 1 0
1 2 1
2 0 3
2 1 3
2 2 0
2 18 27 0 9
0 0 2
0 1 3
0 2 1
1 0 2
1 1 2
1 2 0
2 0 0
2 1 0
2 2 0
2 17 39 0 9
0 0 0
0 1 2
0 2 0
1 0 1
1 1 3
1 2 1
2 0 1
2 1 0
2 2 0
2 0 38 0 9
0 0 0
0 1 0
0 2 2
1 0 3
1 1 0
1 2 2
2 0 1
2 1 2
2 2 0
2 16 19 0 9
0 0 0
0 1 1
0 2 1
1 0 1
1 1 0
1 2 2
2 0 0
2 1 0
2 2 3
2 3 13 0 9
0 0 2
0 1 0
0 2 0
1 0 3
1 1 2
1 2 0
2 0 0
2 1 3
2 2 2
2 29 30 0 9
0 0 0
0 1 1
0 2 0
1 0 3
1 1 2
1 2 0
2 0 3
2 1 3
2 2 0
2 0 8 0 9
0 0 0
0 1 0
0 2 0
1 0 3
1 1 2
1 2 1
2 0 0
2 1 3
2 2 3
2 6 18 0 9
0 0 0
0 1 2
0 2 1
1 0 3
1 1 3
1 2 0
2 0 2
2 1 0
2 2 0
2 45 47 0 9
0 0 0
0 1 0
0 2 0
1 0 2
1 1 2
1 2 0
2 0 1
2 1 3
2 2 1
2 11 13 0 9
0 0 3
0 1 1
0 2 0
1 0 2
1 1 2
1 2 0
2 0 0
2 1 1
2 2 0
2 22 49 0 9
0 0 1
0 1 0
0 2 1
1 0 0
1 1 1
1 2 0
2 0 2
2 1 2
2 2 0
2 1 8 0 9
0 0 2
0 1 3
0 2 2
1 0 0
1 1 0
1 2 0
2 0 1
2 1 0
2 2 3
2 20 37 0 9
0 0 0
0 1 2
0 2 0
1 0 0
1 1 3
1 2 0
2 0 3
2 1 1
2 2 2
2 27 42 0 9
0 0 0
0 1 0
0 2 0
1 0 3
1 1 2
1 2 3
2 0 0
2 1 2
2 2 2
2 14 34 0 9
0 0 0
0 1 0
0 2 3
1 0 0
1 1 3
1 2 1
2 0 3
2 1 2
2 2 0
2 38 47 0 9
0 0 0
0 1 0
0 2 1
1 0 3
1 1 0
1 2 1
2 0 0
2 1 1
2 2 2
2 26 39 0 9
0 0 3
0 1 2
0 2 0
1 0 0
1 1 1
1 2 0
2 0 0
2 1 3
2 2 3
2 21 43 0 9
0 0 0
0 1 3
0 2 0
1 0 0
1 1 2
1 2 2
2 0 1
2 1 0
2 2 3
1 0 512409557603043100 3
0 2
1 0
2 1
1 1 512409557603043100 3
0 0
1 3
2 0
1 2 512409557603043100 3
0 0
1 1
2 1
1 3 512409557603043100 3
0 0
1 2
2 0
1 4 512409557603043100 3
0 1
1 0
2 1
1 5 512409557603043100 3
0 2
1 2
2 0
1 6 512409557603043100 3
0 1
1 0
2 3
1 7 512409557603043100 3
0 2
1 0
2 2
1 8 512409557603043100 3
0 1
1 0
2 1
1 9 512409557603043100 3
0 3
1 2
2 0
1 10 512409557603043100 3
0 1
1 0
2 0
1 11 512409557603043100 3
0 2
1 0
2 1
1 12 512409557603043100 3
0 0
1 1
2 2
1 13 512409557603043100 3
0 2
1 0
2 1
1 14 512409557603043100 3
0 0
1 1
2 3
1 15 512409557603043100 3
0 3
1 0
2 2
1 16 512409557603043100 3
0 2
1 0
2 0
1 17 512409557603043100 3
0 1
1 1
2 0
1 18 512409557603043100 3
0 2
1 0
2 2
1 19 512409557603043100 3
0 0
1 2
2 1
1 20 512409557603043100 3
0 1
1 0
2 1
1 21 512409557603043100 3
0 3
1 2
2 0
1 22 512409557603043100 3
0 2
1 2
2 0
1 23 512409557603043100 3
0 1
1 1
2 0
1 24 512409557603043100 3
0 3
1 0
2 2
1 25 512409557603043100 3
0 1
1 0
2 1
1 26 512409557603043100 3
0 0
1 1
2 3
1 27 512409557603043100 3
0 2
1 0
2 1
1 28 512409557603043100 3
0 0
1 0
2 1
1 29 512409557603043100 3
0 2
1 1
2 0
1 30 512409557603043100 3
0 1
1 2
2 0
1 31 512409557603043100 3
0 0
1 1
2 0
1 32 512409557603043100 3
0 2
1 0
2 3
1 33 512409557603043100 3
0 1
1 0
2 3
1 34 512409557603043100 3
0 0
1 2
2 1
1 35 512409557603043100 3
0 0
1 2
2 2
1 36 512409557603043100 3
0 0
1 0
2 0
1 37 512409557603043100 3
0 0
1 0
2 0
1 38 512409557603043100 3
0 1
1 0
2 2
1 39 512409557603043100 3
0 0
1 0
2 0
1 40 512409557603043100 3
0 0
1 0
2 0
1 41 512409557603043100 3
0 0
1 2
2 3
1 42 512409557603043100 3
0 1
1 0
2 2
1 43 512409557603043100 3
0 0
1 3
2 3
1 44 512409557603043100 3
0 0
1 0
2 0
1 45 512409557603043100 3
0 0
1 1
2 1
1 46 512409557603043100 3
0 1
1 0
2 1
1 47 512409557603043100 3
0 1
1 0
2 2
1 48 512409557603043100 3
0 1
1 0
2 1
1 49 512409557603043100 3
0 1
1 0
2 1
0 35 0
